
Gurobi 6.0.5 (linux64) logging started Sun Oct 22 22:03:10 2017


Gurobi 6.0.5 (linux64) logging started Sun Oct 22 22:03:10 2017


Gurobi 6.0.5 (linux64) logging started Sun Oct 22 22:03:11 2017


Gurobi 6.0.5 (linux64) logging started Sun Oct 22 22:03:11 2017


Gurobi 6.0.5 (linux64) logging started Sun Oct 22 22:03:12 2017


Gurobi 6.0.5 (linux64) logging started Sun Oct 22 22:03:12 2017


Gurobi 6.0.5 (linux64) logging started Sun Oct 22 22:03:13 2017


Gurobi 6.0.5 (linux64) logging started Sun Oct 22 22:03:14 2017


Gurobi 6.0.5 (linux64) logging started Sun Oct 22 22:03:15 2017


Gurobi 6.0.5 (linux64) logging started Sun Oct 22 22:03:29 2017


Gurobi 6.0.5 (linux64) logging started Sun Oct 22 22:03:29 2017


Gurobi 6.0.5 (linux64) logging started Sun Oct 22 22:03:29 2017


Gurobi 6.0.5 (linux64) logging started Sun Oct 22 22:03:30 2017


Gurobi 6.0.5 (linux64) logging started Sun Oct 22 22:03:30 2017


Gurobi 6.0.5 (linux64) logging started Sun Oct 22 22:03:31 2017


Gurobi 6.0.5 (linux64) logging started Sun Oct 22 22:03:32 2017


Gurobi 6.0.5 (linux64) logging started Sun Oct 22 22:03:32 2017


Gurobi 6.0.5 (linux64) logging started Sun Oct 22 22:03:34 2017


Gurobi 6.0.5 (linux64) logging started Mon Oct 23 10:00:11 2017


Gurobi 6.0.5 (linux64) logging started Mon Oct 23 10:00:15 2017


Gurobi 6.0.5 (linux64) logging started Mon Oct 23 10:00:19 2017


Gurobi 6.0.5 (linux64) logging started Mon Oct 23 10:00:34 2017


Gurobi 6.0.5 (linux64) logging started Mon Oct 23 10:00:38 2017


Gurobi 6.0.5 (linux64) logging started Mon Oct 23 10:00:42 2017


Gurobi 7.5.1 (linux64, Python) logging started Mon Oct 23 14:02:00 2017

Academic license - for non-commercial use only
Changed value of parameter LogToConsole to 0
   Prev: 1  Min: 0  Max: 1  Default: 1

Gurobi 7.5.1 (linux64, Python) logging started Mon Oct 23 14:02:19 2017

Academic license - for non-commercial use only
Changed value of parameter LogToConsole to 0
   Prev: 1  Min: 0  Max: 1  Default: 1

Gurobi 7.5.1 (linux64, Python) logging started Tue Oct 24 12:45:44 2017

Academic license - for non-commercial use only
Changed value of parameter LogToConsole to 0
   Prev: 1  Min: 0  Max: 1  Default: 1

Gurobi 7.5.1 (linux64, Python) logging started Tue Oct 24 12:45:55 2017

Academic license - for non-commercial use only
Changed value of parameter LogToConsole to 0
   Prev: 1  Min: 0  Max: 1  Default: 1
